set VARS := x1 x2 x3 x4 x5;

param c :=
x1 -45
x2 -90
x3 -58
x4 -50
x5 -95 ;

param A1 :=
x1 -18
x2 -47
x3 -25
x4 -3
x5 -23 ;

param A2 :=
x1 -5
x2 -8
x3 -5
x4 -15
x5 -22 ;

param A3 :=
x1 3
x2 6
x3 10
x4 10
x5 12 ;
